(set-logic QF_LIA)
(declare-fun x0 () Int)
(declare-fun x1 () Int)
(declare-fun x2 () Int)
(declare-fun x3 () Int)
(declare-fun x4 () Int)
(declare-fun x5 () Int)
(declare-fun x6 () Int)
(declare-fun x7 () Int)
(declare-fun x8 () Int)
(declare-fun x9 () Int)
(declare-fun A0 () Bool)
(declare-fun A1 () Bool)
(declare-fun A2 () Bool)
(declare-fun A3 () Bool)
(declare-fun A5 () Bool)
(declare-fun A6 () Bool)
(declare-fun A7 () Bool)
(declare-fun A8 () Bool)
(declare-fun A9 () Bool)
(assert (let ((.def_0 (not A7))) (let ((.def_1 (* (- 1) x3))) (let ((.def_2 (< .def_1 1))) (let ((.def_3 (or .def_2 .def_0))) (let ((.def_4 (not .def_3))) (let ((.def_5 (* (- 1) x9))) (let ((.def_6 (< .def_5 (- 1)))) (let ((.def_7 (not .def_6))) (let ((.def_8 (* (- 1) x0))) (let ((.def_9 (+ .def_5 .def_8))) (let ((.def_10 (< .def_9 (- 1)))) (let ((.def_11 (or .def_10 .def_7))) (let ((.def_12 (not .def_11))) (let ((.def_13 (or .def_12 .def_4))) (let ((.def_14 (not .def_13))) (let ((.def_15 (* 1 x2))) (let ((.def_16 (+ .def_5 .def_15))) (let ((.def_17 (< .def_16 1))) (let ((.def_18 (* (- 1) x5))) (let ((.def_19 (* 1 x7))) (let ((.def_20 (+ .def_19 .def_18))) (let ((.def_21 (< .def_20 (- 1)))) (let ((.def_22 (not .def_21))) (let ((.def_23 (or .def_22 .def_17))) (let ((.def_24 (not A9))) (let ((.def_25 (or .def_24 A5))) (let ((.def_26 (not .def_25))) (let ((.def_27 (and .def_26 .def_23))) (let ((.def_28 (not .def_27))) (let ((.def_29 (and .def_28 .def_14))) (let ((.def_30 (* (- 1) x2))) (let ((.def_31 (< .def_30 1))) (let ((.def_32 (and A0 .def_31))) (let ((.def_33 (* (- 1) x6))) (let ((.def_34 (+ .def_15 .def_33))) (let ((.def_35 (< .def_34 1))) (let ((.def_36 (and A3 .def_35))) (let ((.def_37 (and .def_36 .def_32))) (let ((.def_38 (not A8))) (let ((.def_39 (and .def_0 .def_38))) (let ((.def_40 (not .def_39))) (let ((.def_41 (* 1 x0))) (let ((.def_42 (< .def_41 (- 1)))) (let ((.def_43 (* 1 x9))) (let ((.def_44 (< .def_43 1))) (let ((.def_45 (and .def_44 .def_42))) (let ((.def_46 (not .def_45))) (let ((.def_47 (= .def_46 .def_40))) (let ((.def_48 (and .def_47 .def_37))) (let ((.def_49 (not .def_48))) (let ((.def_50 (and .def_49 .def_29))) (let ((.def_51 (not .def_50))) (let ((.def_52 (* (- 1) x7))) (let ((.def_53 (< .def_52 (- 1)))) (let ((.def_54 (not .def_53))) (let ((.def_55 (* 1 x6))) (let ((.def_56 (* 1 x3))) (let ((.def_57 (+ .def_56 .def_55))) (let ((.def_58 (< .def_57 (- 1)))) (let ((.def_59 (and .def_58 .def_54))) (let ((.def_60 (not A6))) (let ((.def_61 (or .def_60 A9))) (let ((.def_62 (not .def_61))) (let ((.def_63 (or .def_62 .def_59))) (let ((.def_64 (not .def_63))) (let ((.def_65 (* (- 1) x1))) (let ((.def_66 (< .def_65 1))) (let ((.def_67 (not .def_66))) (let ((.def_68 (* (- 1) x4))) (let ((.def_69 (< .def_68 1))) (let ((.def_70 (not .def_69))) (let ((.def_71 (or .def_70 .def_67))) (let ((.def_72 (< .def_30 (- 1)))) (let ((.def_73 (not .def_72))) (let ((.def_74 (< .def_41 1))) (let ((.def_75 (= .def_74 .def_73))) (let ((.def_76 (= .def_75 .def_71))) (let ((.def_77 (or .def_76 .def_64))) (let ((.def_78 (+ .def_1 .def_15))) (let ((.def_79 (< .def_78 1))) (let ((.def_80 (or A1 .def_79))) (let ((.def_81 (* 1 x8))) (let ((.def_82 (< .def_81 (- 1)))) (let ((.def_83 (or .def_53 .def_82))) (let ((.def_84 (or .def_83 .def_80))) (let ((.def_85 (not .def_84))) (let ((.def_86 (< .def_33 1))) (let ((.def_87 (or .def_86 A2))) (let ((.def_88 (not .def_87))) (let ((.def_89 (not A3))) (let ((.def_90 (+ .def_8 .def_5))) (let ((.def_91 (< .def_90 1))) (let ((.def_92 (not .def_91))) (let ((.def_93 (and .def_92 .def_89))) (let ((.def_94 (not .def_93))) (let ((.def_95 (or .def_94 .def_88))) (let ((.def_96 (or .def_95 .def_85))) (let ((.def_97 (not .def_96))) (let ((.def_98 (and .def_97 .def_77))) (let ((.def_99 (and .def_98 .def_51))) (let ((.def_100 (not .def_99))) (let ((.def_101 (<= x9 1))) (let ((.def_102 (<= 0 x9))) (let ((.def_103 (<= x8 1))) (let ((.def_104 (<= 0 x8))) (let ((.def_105 (<= x7 1))) (let ((.def_106 (<= 0 x7))) (let ((.def_107 (<= x6 1))) (let ((.def_108 (<= 0 x6))) (let ((.def_109 (<= x5 1))) (let ((.def_110 (<= 0 x5))) (let ((.def_111 (<= x4 1))) (let ((.def_112 (<= 0 x4))) (let ((.def_113 (<= x3 1))) (let ((.def_114 (<= 0 x3))) (let ((.def_115 (<= x2 1))) (let ((.def_116 (<= 0 x2))) (let ((.def_117 (<= x1 1))) (let ((.def_118 (<= 0 x1))) (let ((.def_119 (<= x0 1))) (let ((.def_120 (<= 0 x0))) (let ((.def_121 (and .def_120 .def_119 .def_118 .def_117 .def_116 .def_115 .def_114 .def_113 .def_112 .def_111 .def_110 .def_109 .def_108 .def_107 .def_106 .def_105 .def_104 .def_103 .def_102 .def_101 .def_100))) .def_121)))))))))))))))))))))))))))))))))))))))))))))))))))))))))))))))))))))))))))))))))))))))))))))))))))))))))))))))))))))))))))
(check-sat)
